(set-option :produce-models true); benchmark generated from python API
(set-info :status unknown)
(declare-fun l_0_0_7 () Real)
(declare-fun l_0_0_13 () Real)
(declare-fun l_0_0_1 () Real)
(declare-fun _a_0_ () Real)
(declare-fun l_0_0_6 () Real)
(declare-fun l_0_0_5 () Real)
(declare-fun l_0_0_4 () Real)
(declare-fun l_0_0_18 () Real)
(declare-fun l_0_0_17 () Real)
(declare-fun l_0_0_16 () Real)
(declare-fun l_0_0_12 () Real)
(declare-fun l_0_0_11 () Real)
(declare-fun l_0_0_10 () Real)
(declare-fun _a_1_ () Real)
(declare-fun l_0_0_9 () Real)
(declare-fun l_0_0_8 () Real)
(declare-fun l_0_0_3 () Real)
(declare-fun l_0_0_2 () Real)
(declare-fun l_0_0_15 () Real)
(declare-fun l_0_0_14 () Real)
(declare-fun _a_2_ () Real)
(declare-fun l_0_1_7 () Real)
(declare-fun l_0_1_13 () Real)
(declare-fun l_0_1_1 () Real)
(declare-fun l_0_1_18 () Real)
(declare-fun l_0_1_17 () Real)
(declare-fun l_0_1_16 () Real)
(declare-fun l_0_1_12 () Real)
(declare-fun l_0_1_11 () Real)
(declare-fun l_0_1_10 () Real)
(declare-fun l_0_1_6 () Real)
(declare-fun l_0_1_5 () Real)
(declare-fun l_0_1_4 () Real)
(declare-fun l_0_1_9 () Real)
(declare-fun l_0_1_8 () Real)
(declare-fun l_0_1_15 () Real)
(declare-fun l_0_1_14 () Real)
(declare-fun l_0_1_3 () Real)
(declare-fun l_0_1_2 () Real)
(declare-fun l_0_2_7 () Real)
(declare-fun l_0_2_13 () Real)
(declare-fun l_0_2_1 () Real)
(declare-fun l_0_2_12 () Real)
(declare-fun l_0_2_11 () Real)
(declare-fun l_0_2_10 () Real)
(declare-fun l_0_2_6 () Real)
(declare-fun l_0_2_5 () Real)
(declare-fun l_0_2_4 () Real)
(declare-fun l_0_2_9 () Real)
(declare-fun l_0_2_8 () Real)
(declare-fun l_0_2_3 () Real)
(declare-fun l_0_2_2 () Real)
(declare-fun l_0_2_14 () Real)
(declare-fun l_0_2_16 () Real)
(declare-fun l_0_2_15 () Real)
(declare-fun l_0_2_17 () Real)
(declare-fun l_0_2_18 () Real)
(assert
 (let ((?x68 (* l_0_0_7 l_0_0_7)))
 (let ((?x69 (* (/ 7.0 20.0) ?x68)))
 (let ((?x66 (* l_0_0_13 l_0_0_13)))
 (let ((?x62 (* l_0_0_1 l_0_0_1)))
 (let ((?x64 (* (/ 7.0 20.0) ?x62)))
 (let ((?x65 (+ _a_0_ ?x64)))
 (= (+ (- ?x65 ?x66) ?x69) 0.0))))))))
(assert
 (let ((?x123 (* l_0_0_6 l_0_0_6)))
 (let ((?x124 (* (/ 7.0 20.0) ?x123)))
 (let ((?x120 (* l_0_0_5 l_0_0_5)))
 (let ((?x121 (* (/ 7.0 20.0) ?x120)))
 (let ((?x117 (* l_0_0_4 l_0_0_4)))
 (let ((?x118 (* (/ 7.0 20.0) ?x117)))
 (let ((?x115 (* l_0_0_18 l_0_0_18)))
 (let ((?x113 (* l_0_0_17 l_0_0_17)))
 (let ((?x111 (* l_0_0_16 l_0_0_16)))
 (let ((?x108 (* l_0_0_12 l_0_0_12)))
 (let ((?x109 (* (/ 7.0 20.0) ?x108)))
 (let ((?x105 (* l_0_0_11 l_0_0_11)))
 (let ((?x106 (* (/ 7.0 20.0) ?x105)))
 (let ((?x102 (* l_0_0_10 l_0_0_10)))
 (let ((?x103 (* (/ 7.0 20.0) ?x102)))
 (let ((?x62 (* l_0_0_1 l_0_0_1)))
 (let ((?x107 (+ (+ (+ (- _a_1_ (* (* (/ 12.0 5.0) l_0_0_1) l_0_0_4)) ?x62) ?x103) ?x106)))
 (let ((?x125 (+ (+ (+ (- (- (- (+ ?x107 ?x109) ?x111) ?x113) ?x115) ?x118) ?x121) ?x124)))
 (= ?x125 0.0))))))))))))))))))))
(assert
 (let ((?x163 (* l_0_0_9 l_0_0_9)))
 (let ((?x164 (* (/ 7.0 20.0) ?x163)))
 (let ((?x160 (* l_0_0_8 l_0_0_8)))
 (let ((?x161 (* (/ 7.0 20.0) ?x160)))
 (let ((?x68 (* l_0_0_7 l_0_0_7)))
 (let ((?x153 (* l_0_0_3 l_0_0_3)))
 (let ((?x154 (* (/ 7.0 20.0) ?x153)))
 (let ((?x150 (* l_0_0_2 l_0_0_2)))
 (let ((?x151 (* (/ 7.0 20.0) ?x150)))
 (let ((?x152 (+ (- (- _a_2_ (* l_0_0_14 l_0_0_14)) (* l_0_0_15 l_0_0_15)) ?x151)))
 (let ((?x162 (+ (+ (- (+ ?x152 ?x154) (* (* (/ 12.0 5.0) l_0_0_7) l_0_0_8)) ?x68) ?x161)))
 (= (+ ?x162 ?x164) 0.0)))))))))))))
(assert
 (let ((?x187 (- (* (* (/ 7.0 10.0) l_0_0_1) l_0_0_4) (* (* (/ 6.0 5.0) l_0_0_1) l_0_0_1))))
 (let ((?x194 (- (+ ?x187 (* (* (/ 7.0 10.0) l_0_0_10) l_0_0_7)) (* (* 2.0 l_0_0_13) l_0_0_16))))
 (= ?x194 0.0))))
(assert
 (let ((?x222 (- (* (* (- (/ 12.0 5.0)) l_0_0_1) l_0_0_2) (* (* (/ 12.0 5.0) l_0_0_10) l_0_0_7))))
 (let ((?x227 (+ (+ ?x222 (* (* (/ 7.0 10.0) l_0_0_10) l_0_0_8)) (* (* (/ 7.0 10.0) l_0_0_11) l_0_0_9))))
 (let ((?x233 (- (- ?x227 (* (* 2.0 l_0_0_14) l_0_0_16)) (* (* 2.0 l_0_0_15) l_0_0_17))))
 (let ((?x239 (+ (+ ?x233 (* (* (/ 7.0 10.0) l_0_0_2) l_0_0_4)) (* (* (/ 7.0 10.0) l_0_0_3) l_0_0_5))))
 (= ?x239 0.0))))))
(assert
 (let ((?x277 (- (* (* 2.0 l_0_0_10) l_0_0_7) (* (* (/ 12.0 5.0) l_0_0_10) l_0_0_8))))
 (let ((?x283 (- (- ?x277 (* (* (/ 12.0 5.0) l_0_0_11) l_0_0_9)) (* (* (/ 6.0 5.0) l_0_0_2) l_0_0_2))))
 (= (- ?x283 (* (* (/ 6.0 5.0) l_0_0_3) l_0_0_3)) 0.0))))
(assert
 (let ((?x316 (- (* (* 2.0 l_0_0_1) l_0_0_2) (* (* (/ 6.0 5.0) l_0_0_10) l_0_0_10))))
 (let ((?x322 (- (- ?x316 (* (* (/ 6.0 5.0) l_0_0_11) l_0_0_11)) (* (* (/ 6.0 5.0) l_0_0_12) l_0_0_12))))
 (let ((?x328 (- (- ?x322 (* (* (/ 12.0 5.0) l_0_0_2) l_0_0_4)) (* (* (/ 12.0 5.0) l_0_0_3) l_0_0_5))))
 (= ?x328 0.0)))))
(assert
 (let ((?x362 (- (* (* 2.0 l_0_0_1) l_0_0_4) (* (* (/ 6.0 5.0) l_0_0_4) l_0_0_4))))
 (let ((?x368 (- (- ?x362 (* (* (/ 6.0 5.0) l_0_0_5) l_0_0_5)) (* (* (/ 6.0 5.0) l_0_0_6) l_0_0_6))))
 (= ?x368 0.0))))
(assert
 (let ((?x153 (* l_0_0_3 l_0_0_3)))
 (let ((?x150 (* l_0_0_2 l_0_0_2)))
 (let ((?x108 (* l_0_0_12 l_0_0_12)))
 (let ((?x391 (+ (+ (+ (* l_0_0_10 l_0_0_10) (* l_0_0_11 l_0_0_11)) ?x108) ?x150)))
 (= (+ ?x391 ?x153) 0.0))))))
(assert
 (let ((?x400 (+ (* (* 2.0 l_0_0_2) l_0_0_4) (* (* 2.0 l_0_0_3) l_0_0_5))))
 (= ?x400 0.0)))
(assert
 (let ((?x123 (* l_0_0_6 l_0_0_6)))
 (= (+ (+ (* l_0_0_4 l_0_0_4) (* l_0_0_5 l_0_0_5)) ?x123) 0.0)))
(assert
 (let ((?x413 (- (* (* (/ 7.0 10.0) l_0_0_1) l_0_0_2) (* (* 2.0 l_0_0_13) l_0_0_14))))
 (let ((?x419 (- (+ ?x413 (* (* (/ 7.0 10.0) l_0_0_7) l_0_0_8)) (* (* (/ 6.0 5.0) l_0_0_7) l_0_0_7))))
 (= ?x419 0.0))))
(assert
 (let ((?x443 (- (* (* 2.0 l_0_0_7) l_0_0_8) (* (* (/ 6.0 5.0) l_0_0_8) l_0_0_8))))
 (= (- ?x443 (* (* (/ 6.0 5.0) l_0_0_9) l_0_0_9)) 0.0)))
(assert
 (= (+ (* l_0_0_8 l_0_0_8) (* l_0_0_9 l_0_0_9)) 0.0))
(assert
 (let ((?x467 (+ (* (* 2.0 l_0_0_10) l_0_0_8) (* (* 2.0 l_0_0_11) l_0_0_9))))
 (= ?x467 0.0)))
(assert
 (>= l_0_0_1 0.0))
(assert
 (>= l_0_0_3 0.0))
(assert
 (>= l_0_0_6 0.0))
(assert
 (>= l_0_0_7 0.0))
(assert
 (>= l_0_0_9 0.0))
(assert
 (>= l_0_0_12 0.0))
(assert
 (>= l_0_0_13 0.0))
(assert
 (>= l_0_0_15 0.0))
(assert
 (>= l_0_0_18 0.0))
(assert
 (let ((?x490 (+ (- (* (* (- _a_0_) l_0_1_1) l_0_1_1) (* l_0_1_13 l_0_1_13)) (* 1.0 (* l_0_1_7 l_0_1_7)))))
 (= (+ ?x490 (/ 9.0 25.0)) 0.0)))
(assert
 (let ((?x487 (* l_0_1_7 l_0_1_7)))
 (let ((?x525 (* l_0_1_18 l_0_1_18)))
 (let ((?x523 (* l_0_1_17 l_0_1_17)))
 (let ((?x521 (* l_0_1_16 l_0_1_16)))
 (let ((?x506 (* l_0_1_6 l_0_1_6)))
 (let ((?x507 (+ (+ (* l_0_1_4 l_0_1_4) (* l_0_1_5 l_0_1_5)) ?x506)))
 (let ((?x482 (- _a_0_)))
 (let ((?x514 (+ (- (* ?x482 ?x507) (* (* _a_1_ l_0_1_1) l_0_1_1)) (* 1.0 (* l_0_1_10 l_0_1_10)))))
 (let ((?x520 (+ (+ ?x514 (* 1.0 (* l_0_1_11 l_0_1_11))) (* 1.0 (* l_0_1_12 l_0_1_12)))))
 (= (- (- (- (- (- ?x520 ?x521) ?x523) ?x525) ?x487) 1.0) 0.0)))))))))))
(assert
 (let ((?x487 (* l_0_1_7 l_0_1_7)))
 (let ((?x570 (* l_0_1_15 l_0_1_15)))
 (let ((?x568 (* l_0_1_14 l_0_1_14)))
 (let ((?x567 (- (* (- _a_0_) (+ (* l_0_1_2 l_0_1_2) (* l_0_1_3 l_0_1_3))) (* (* _a_2_ l_0_1_1) l_0_1_1))))
 (let ((?x575 (+ (- (- (- ?x567 ?x568) ?x570) ?x487) (* 1.0 (* l_0_1_8 l_0_1_8)))))
 (= (- (+ ?x575 (* 1.0 (* l_0_1_9 l_0_1_9))) 1.0) 0.0)))))))
(assert
 (let ((?x612 (* (* 2.0 l_0_1_7) l_0_1_8)))
 (let ((?x610 (- (* (* (* (- 2.0) _a_0_) l_0_1_1) l_0_1_2) (* (* 2.0 l_0_1_13) l_0_1_14))))
 (= (+ ?x610 ?x612) 0.0))))
(assert
 (let ((?x625 (* 2.0 l_0_1_10)))
 (let ((?x630 (* ?x625 l_0_1_7)))
 (let ((?x633 (- (+ (* (* (* (- 2.0) _a_0_) l_0_1_1) l_0_1_4) ?x630) (* (* 2.0 l_0_1_13) l_0_1_16))))
 (= ?x633 0.0)))))
(assert
 (let ((?x661 (* (* 2.0 l_0_1_11) l_0_1_9)))
 (let ((?x625 (* 2.0 l_0_1_10)))
 (let ((?x658 (* ?x625 l_0_1_8)))
 (let ((?x656 (+ (* (* 2.0 l_0_1_2) l_0_1_4) (* (* 2.0 l_0_1_3) l_0_1_5))))
 (let ((?x482 (- _a_0_)))
 (let ((?x665 (- (+ (+ (* ?x482 ?x656) ?x658) ?x661) (* (* 2.0 l_0_1_14) l_0_1_16))))
 (= (- ?x665 (* (* 2.0 l_0_1_15) l_0_1_17)) 0.0))))))))
(assert
 (let ((?x612 (* (* 2.0 l_0_1_7) l_0_1_8)))
 (= (- (* (* (* (- 2.0) _a_1_) l_0_1_1) l_0_1_2) ?x612) 0.0)))
(assert
 (let ((?x625 (* 2.0 l_0_1_10)))
 (let ((?x630 (* ?x625 l_0_1_7)))
 (= (- (* (* (* (- 2.0) _a_1_) l_0_1_1) l_0_1_4) ?x630) 0.0))))
(assert
 (let ((?x576 (* l_0_1_9 l_0_1_9)))
 (let ((?x573 (* l_0_1_8 l_0_1_8)))
 (let ((?x518 (* l_0_1_12 l_0_1_12)))
 (let ((?x515 (* l_0_1_11 l_0_1_11)))
 (let ((?x512 (* l_0_1_10 l_0_1_10)))
 (let ((?x506 (* l_0_1_6 l_0_1_6)))
 (let ((?x507 (+ (+ (* l_0_1_4 l_0_1_4) (* l_0_1_5 l_0_1_5)) ?x506)))
 (let ((?x726 (- (* (- _a_1_) (+ (* l_0_1_2 l_0_1_2) (* l_0_1_3 l_0_1_3))) (* _a_2_ ?x507))))
 (= (- (- (- (- (- ?x726 ?x512) ?x515) ?x518) ?x573) ?x576) 0.0))))))))))
(assert
 (let ((?x661 (* (* 2.0 l_0_1_11) l_0_1_9)))
 (let ((?x625 (* 2.0 l_0_1_10)))
 (let ((?x658 (* ?x625 l_0_1_8)))
 (let ((?x656 (+ (* (* 2.0 l_0_1_2) l_0_1_4) (* (* 2.0 l_0_1_3) l_0_1_5))))
 (let ((?x723 (- _a_1_)))
 (= (- (- (* ?x723 ?x656) ?x658) ?x661) 0.0)))))))
(assert
 (let ((?x518 (* l_0_1_12 l_0_1_12)))
 (let ((?x515 (* l_0_1_11 l_0_1_11)))
 (let ((?x512 (* l_0_1_10 l_0_1_10)))
 (let ((?x506 (* l_0_1_6 l_0_1_6)))
 (let ((?x507 (+ (+ (* l_0_1_4 l_0_1_4) (* l_0_1_5 l_0_1_5)) ?x506)))
 (let ((?x723 (- _a_1_)))
 (= (- (- (- (* ?x723 ?x507) ?x512) ?x515) ?x518) 0.0))))))))
(assert
 (let ((?x612 (* (* 2.0 l_0_1_7) l_0_1_8)))
 (= (- (* (* (* (- 2.0) _a_2_) l_0_1_1) l_0_1_2) ?x612) 0.0)))
(assert
 (let ((?x625 (* 2.0 l_0_1_10)))
 (let ((?x630 (* ?x625 l_0_1_7)))
 (= (- (* (* (* (- 2.0) _a_2_) l_0_1_1) l_0_1_4) ?x630) 0.0))))
(assert
 (let ((?x576 (* l_0_1_9 l_0_1_9)))
 (let ((?x573 (* l_0_1_8 l_0_1_8)))
 (let ((?x832 (- (* (- _a_2_) (+ (* l_0_1_2 l_0_1_2) (* l_0_1_3 l_0_1_3))) ?x573)))
 (= (- ?x832 ?x576) 0.0)))))
(assert
 (let ((?x661 (* (* 2.0 l_0_1_11) l_0_1_9)))
 (let ((?x625 (* 2.0 l_0_1_10)))
 (let ((?x658 (* ?x625 l_0_1_8)))
 (let ((?x656 (+ (* (* 2.0 l_0_1_2) l_0_1_4) (* (* 2.0 l_0_1_3) l_0_1_5))))
 (let ((?x830 (- _a_2_)))
 (= (- (- (* ?x830 ?x656) ?x658) ?x661) 0.0)))))))
(assert
 (>= l_0_1_1 0.0))
(assert
 (>= l_0_1_3 0.0))
(assert
 (>= l_0_1_6 0.0))
(assert
 (>= l_0_1_7 0.0))
(assert
 (>= l_0_1_9 0.0))
(assert
 (>= l_0_1_12 0.0))
(assert
 (>= l_0_1_13 0.0))
(assert
 (>= l_0_1_15 0.0))
(assert
 (>= l_0_1_18 0.0))
(assert
 (let ((?x874 (* l_0_2_13 l_0_2_13)))
 (let ((?x878 (- (- (+ (* (* (- _a_0_) l_0_2_1) l_0_2_1) _a_0_) ?x874) (* (* 1.0 l_0_2_7) l_0_2_7))))
 (= ?x878 0.0))))
(assert
 (let ((?x906 (* l_0_2_12 l_0_2_12)))
 (let ((?x904 (* l_0_2_11 l_0_2_11)))
 (let ((?x902 (* l_0_2_10 l_0_2_10)))
 (let ((?x900 (* (/ 9.0 25.0) _a_2_)))
 (let ((?x898 (* (/ 1.0 4.0) _a_1_)))
 (let ((?x894 (* l_0_2_6 l_0_2_6)))
 (let ((?x895 (+ (+ (* l_0_2_4 l_0_2_4) (* l_0_2_5 l_0_2_5)) ?x894)))
 (let ((?x723 (- _a_1_)))
 (= (+ (+ (+ (+ (+ (* ?x723 ?x895) ?x898) ?x900) ?x902) ?x904) ?x906) 0.0))))))))))
(assert
 (let ((?x933 (* l_0_2_9 l_0_2_9)))
 (let ((?x931 (* l_0_2_8 l_0_2_8)))
 (let ((?x906 (* l_0_2_12 l_0_2_12)))
 (let ((?x904 (* l_0_2_11 l_0_2_11)))
 (let ((?x902 (* l_0_2_10 l_0_2_10)))
 (let ((?x900 (* (/ 9.0 25.0) _a_2_)))
 (let ((?x894 (* l_0_2_6 l_0_2_6)))
 (let ((?x895 (+ (+ (* l_0_2_4 l_0_2_4) (* l_0_2_5 l_0_2_5)) ?x894)))
 (let ((?x923 (* (/ 2.0 5.0) _a_1_)))
 (let ((?x924 (+ (* (- _a_1_) (+ (* l_0_2_2 l_0_2_2) (* l_0_2_3 l_0_2_3))) ?x923)))
 (let ((?x932 (+ (+ (+ (+ (- (- ?x924 (* _a_2_ ?x895)) ?x900) ?x902) ?x904) ?x906) ?x931)))
 (= (+ ?x932 ?x933) 0.0)))))))))))))
(assert
 (let ((?x933 (* l_0_2_9 l_0_2_9)))
 (let ((?x931 (* l_0_2_8 l_0_2_8)))
 (let ((?x970 (* (/ 9.0 100.0) _a_2_)))
 (let ((?x966 (* (/ 4.0 25.0) _a_1_)))
 (let ((?x968 (- ?x966 (* _a_2_ (+ (* l_0_2_2 l_0_2_2) (* l_0_2_3 l_0_2_3))))))
 (= (+ (+ (+ ?x968 ?x970) ?x931) ?x933) 0.0)))))))
(assert
 (let ((?x995 (* (* 2.0 l_0_2_7) l_0_2_8)))
 (let ((?x993 (- (* (* (* (- 2.0) _a_0_) l_0_2_1) l_0_2_2) (* (* 2.0 l_0_2_13) l_0_2_14))))
 (= (- ?x993 ?x995) 0.0))))
(assert
 (let ((?x1016 (* 2.0 l_0_2_10)))
 (let ((?x1017 (* ?x1016 l_0_2_7)))
 (let ((?x1020 (- (- (* (* (* (- 2.0) _a_0_) l_0_2_1) l_0_2_4) ?x1017) (* (* 2.0 l_0_2_13) l_0_2_16))))
 (= ?x1020 0.0)))))
(assert
 (let ((?x886 (* l_0_2_7 l_0_2_7)))
 (let ((?x1047 (* l_0_2_15 l_0_2_15)))
 (let ((?x1045 (* l_0_2_14 l_0_2_14)))
 (let ((?x1044 (- (* (- _a_0_) (+ (* l_0_2_2 l_0_2_2) (* l_0_2_3 l_0_2_3))) (* (* _a_2_ l_0_2_1) l_0_2_1))))
 (let ((?x1052 (- (+ (- (- ?x1044 ?x1045) ?x1047) ?x886) (* (* 1.0 l_0_2_8) l_0_2_8))))
 (= (- ?x1052 (* (* 1.0 l_0_2_9) l_0_2_9)) 0.0)))))))
(assert
 (let ((?x1089 (* (* 2.0 l_0_2_11) l_0_2_9)))
 (let ((?x1016 (* 2.0 l_0_2_10)))
 (let ((?x1086 (* ?x1016 l_0_2_8)))
 (let ((?x1084 (+ (* (* 2.0 l_0_2_2) l_0_2_4) (* (* 2.0 l_0_2_3) l_0_2_5))))
 (let ((?x482 (- _a_0_)))
 (let ((?x1093 (- (- (- (* ?x482 ?x1084) ?x1086) ?x1089) (* (* 2.0 l_0_2_14) l_0_2_16))))
 (= (- ?x1093 (* (* 2.0 l_0_2_15) l_0_2_17)) 0.0))))))))
(assert
 (let ((?x886 (* l_0_2_7 l_0_2_7)))
 (let ((?x1150 (* l_0_2_18 l_0_2_18)))
 (let ((?x1148 (* l_0_2_17 l_0_2_17)))
 (let ((?x1146 (* l_0_2_16 l_0_2_16)))
 (let ((?x894 (* l_0_2_6 l_0_2_6)))
 (let ((?x895 (+ (+ (* l_0_2_4 l_0_2_4) (* l_0_2_5 l_0_2_5)) ?x894)))
 (let ((?x482 (- _a_0_)))
 (let ((?x1139 (- (- (* ?x482 ?x895) (* (* _a_1_ l_0_2_1) l_0_2_1)) (* (* 1.0 l_0_2_10) l_0_2_10))))
 (let ((?x1145 (- (- ?x1139 (* (* 1.0 l_0_2_11) l_0_2_11)) (* (* 1.0 l_0_2_12) l_0_2_12))))
 (= (+ (- (- (- ?x1145 ?x1146) ?x1148) ?x1150) ?x886) 0.0)))))))))))
(assert
 (let ((?x995 (* (* 2.0 l_0_2_7) l_0_2_8)))
 (= (+ (* (* (* (- 2.0) _a_1_) l_0_2_1) l_0_2_2) ?x995) 0.0)))
(assert
 (let ((?x1016 (* 2.0 l_0_2_10)))
 (let ((?x1017 (* ?x1016 l_0_2_7)))
 (= (+ (* (* (* (- 2.0) _a_1_) l_0_2_1) l_0_2_4) ?x1017) 0.0))))
(assert
 (let ((?x1089 (* (* 2.0 l_0_2_11) l_0_2_9)))
 (let ((?x1016 (* 2.0 l_0_2_10)))
 (let ((?x1086 (* ?x1016 l_0_2_8)))
 (let ((?x1084 (+ (* (* 2.0 l_0_2_2) l_0_2_4) (* (* 2.0 l_0_2_3) l_0_2_5))))
 (let ((?x723 (- _a_1_)))
 (= (+ (+ (* ?x723 ?x1084) ?x1086) ?x1089) 0.0)))))))
(assert
 (let ((?x995 (* (* 2.0 l_0_2_7) l_0_2_8)))
 (= (+ (* (* (* (- 2.0) _a_2_) l_0_2_1) l_0_2_2) ?x995) 0.0)))
(assert
 (let ((?x1016 (* 2.0 l_0_2_10)))
 (let ((?x1017 (* ?x1016 l_0_2_7)))
 (= (+ (* (* (* (- 2.0) _a_2_) l_0_2_1) l_0_2_4) ?x1017) 0.0))))
(assert
 (let ((?x1089 (* (* 2.0 l_0_2_11) l_0_2_9)))
 (let ((?x1016 (* 2.0 l_0_2_10)))
 (let ((?x1086 (* ?x1016 l_0_2_8)))
 (let ((?x1084 (+ (* (* 2.0 l_0_2_2) l_0_2_4) (* (* 2.0 l_0_2_3) l_0_2_5))))
 (let ((?x830 (- _a_2_)))
 (= (+ (+ (* ?x830 ?x1084) ?x1086) ?x1089) 0.0)))))))
(assert
 (>= l_0_2_1 0.0))
(assert
 (>= l_0_2_3 0.0))
(assert
 (>= l_0_2_6 0.0))
(assert
 (>= l_0_2_7 0.0))
(assert
 (>= l_0_2_9 0.0))
(assert
 (>= l_0_2_12 0.0))
(assert
 (>= l_0_2_13 0.0))
(assert
 (>= l_0_2_15 0.0))
(assert
 (>= l_0_2_18 0.0))
(check-sat)
(get-model)